Route #1: 23 24 75 20 26 57 19 35 65 69 
Route #2: 74 44 12 5 17 31 39 70 
Route #3: 73 42 33 55 54 72 4 50 58 66 36 
Route #4: 40 21 71 10 62 1 
Route #5: 14 8 68 2 34 63 11 13 
Route #6: 29 47 56 43 61 16 78 59 60 
Route #7: 27 3 77 38 32 22 49 
Route #8: 51 64 41 46 30 6 7 
Route #9: 53 67 25 15 9 45 76 
Route #10: 37 18 48 52 28 79 
cost 2408.58
execution_time 42.303
